NAME : gaussian_random95.7718.tour
COMMENT : Length = 7718
COMMENT : Found by LKH [Keld Helsgaun] Sun Jul  7 17:47:42 2024
TYPE : TOUR
DIMENSION : 95
TOUR_SECTION
1
33
77
91
85
80
47
89
11
46
43
82
71
38
64
67
16
90
63
62
78
58
56
21
59
26
75
86
72
29
25
36
18
4
55
15
7
60
68
42
81
93
92
65
34
39
61
20
49
3
53
54
94
79
74
13
22
88
52
57
50
95
66
19
45
9
10
2
83
30
37
12
35
44
32
41
17
48
69
8
5
70
14
87
40
24
31
27
76
84
6
51
23
28
73
-1
EOF
